NAME /Users/henri/Research/solvers/instances/idol-instances/robust/collection/spp_dkp_Lefebvre_et_al_2026/shortest_path_8_4/uncertainty_sets/discrete_knapsack
ROWS
 N  OBJ
 L  primal_lower
COLUMNS
    MARKER    'MARKER'                 'INTORG'
    y[0,1]     OBJ        0
    y[0,1]     primal_lower -3.8
    y[0,2]     OBJ        0
    y[0,2]     primal_lower -3.08
    y[0,3]     OBJ        0
    y[0,3]     primal_lower -1.21
    y[0,4]     OBJ        0
    y[0,4]     primal_lower -3.68
    y[0,5]     OBJ        0
    y[0,5]     primal_lower -1.52
    y[0,6]     OBJ        0
    y[0,6]     primal_lower -4.54
    y[1,0]     OBJ        0
    y[1,0]     primal_lower -0.21
    y[1,2]     OBJ        0
    y[1,2]     primal_lower -2.14
    y[1,3]     OBJ        0
    y[1,3]     primal_lower -4.42
    y[1,4]     OBJ        0
    y[1,4]     primal_lower -2.21
    y[1,6]     OBJ        0
    y[1,6]     primal_lower -2.46
    y[2,0]     OBJ        0
    y[2,0]     primal_lower -0.41
    y[2,1]     OBJ        0
    y[2,1]     primal_lower -2.07
    y[2,3]     OBJ        0
    y[2,3]     primal_lower -3.62
    y[2,4]     OBJ        0
    y[2,4]     primal_lower -4.2
    y[2,5]     OBJ        0
    y[2,5]     primal_lower -1.57
    y[2,6]     OBJ        0
    y[2,6]     primal_lower -0.5
    y[2,7]     OBJ        0
    y[2,7]     primal_lower -3.89
    y[3,0]     OBJ        0
    y[3,0]     primal_lower -1.91
    y[3,1]     OBJ        0
    y[3,1]     primal_lower -3.04
    y[3,2]     OBJ        0
    y[3,2]     primal_lower -0.17
    y[3,4]     OBJ        0
    y[3,4]     primal_lower -1.45
    y[3,5]     OBJ        0
    y[3,5]     primal_lower -0.23
    y[3,7]     OBJ        0
    y[3,7]     primal_lower -1.8
    y[4,0]     OBJ        0
    y[4,0]     primal_lower -1.27
    y[4,1]     OBJ        0
    y[4,1]     primal_lower -4.8
    y[4,2]     OBJ        0
    y[4,2]     primal_lower -1.92
    y[4,3]     OBJ        0
    y[4,3]     primal_lower -1.49
    y[4,5]     OBJ        0
    y[4,5]     primal_lower -1.07
    y[4,6]     OBJ        0
    y[4,6]     primal_lower -2.39
    y[4,7]     OBJ        0
    y[4,7]     primal_lower -0.28
    y[5,0]     OBJ        0
    y[5,0]     primal_lower -1.4
    y[5,2]     OBJ        0
    y[5,2]     primal_lower -1.14
    y[5,3]     OBJ        0
    y[5,3]     primal_lower -4.67
    y[5,4]     OBJ        0
    y[5,4]     primal_lower -2.98
    y[5,6]     OBJ        0
    y[5,6]     primal_lower -4.18
    y[5,7]     OBJ        0
    y[5,7]     primal_lower -0.44
    y[6,0]     OBJ        0
    y[6,0]     primal_lower -0.72
    y[6,1]     OBJ        0
    y[6,1]     primal_lower -3.26
    y[6,2]     OBJ        0
    y[6,2]     primal_lower -4.75
    y[6,4]     OBJ        0
    y[6,4]     primal_lower -0.11
    y[6,5]     OBJ        0
    y[6,5]     primal_lower -4.4
    y[7,2]     OBJ        0
    y[7,2]     primal_lower -0.28
    y[7,3]     OBJ        0
    y[7,3]     primal_lower -3.66
    y[7,4]     OBJ        0
    y[7,4]     primal_lower -0.31
    y[7,5]     OBJ        0
    y[7,5]     primal_lower -1.24
    u[0,1]     OBJ        0
    u[0,1]     primal_lower 14
    u[0,2]     OBJ        0
    u[0,2]     primal_lower 72
    u[0,3]     OBJ        0
    u[0,3]     primal_lower 54
    u[0,4]     OBJ        0
    u[0,4]     primal_lower 85
    u[0,5]     OBJ        0
    u[0,5]     primal_lower 84
    u[0,6]     OBJ        0
    u[0,6]     primal_lower 58
    u[1,0]     OBJ        0
    u[1,0]     primal_lower 77
    u[1,2]     OBJ        0
    u[1,2]     primal_lower 22
    u[1,3]     OBJ        0
    u[1,3]     primal_lower 82
    u[1,4]     OBJ        0
    u[1,4]     primal_lower 96
    u[1,6]     OBJ        0
    u[1,6]     primal_lower 48
    u[2,0]     OBJ        0
    u[2,0]     primal_lower 75
    u[2,1]     OBJ        0
    u[2,1]     primal_lower 83
    u[2,3]     OBJ        0
    u[2,3]     primal_lower 12
    u[2,4]     OBJ        0
    u[2,4]     primal_lower 6
    u[2,5]     OBJ        0
    u[2,5]     primal_lower 90
    u[2,6]     OBJ        0
    u[2,6]     primal_lower 15
    u[2,7]     OBJ        0
    u[2,7]     primal_lower 61
    u[3,0]     OBJ        0
    u[3,0]     primal_lower 12
    u[3,1]     OBJ        0
    u[3,1]     primal_lower 57
    u[3,2]     OBJ        0
    u[3,2]     primal_lower 42
    u[3,4]     OBJ        0
    u[3,4]     primal_lower 65
    u[3,5]     OBJ        0
    u[3,5]     primal_lower 1
    u[3,7]     OBJ        0
    u[3,7]     primal_lower 37
    u[4,0]     OBJ        0
    u[4,0]     primal_lower 90
    u[4,1]     OBJ        0
    u[4,1]     primal_lower 5
    u[4,2]     OBJ        0
    u[4,2]     primal_lower 26
    u[4,3]     OBJ        0
    u[4,3]     primal_lower 40
    u[4,5]     OBJ        0
    u[4,5]     primal_lower 83
    u[4,6]     OBJ        0
    u[4,6]     primal_lower 33
    u[4,7]     OBJ        0
    u[4,7]     primal_lower 71
    u[5,0]     OBJ        0
    u[5,0]     primal_lower 26
    u[5,2]     OBJ        0
    u[5,2]     primal_lower 27
    u[5,3]     OBJ        0
    u[5,3]     primal_lower 92
    u[5,4]     OBJ        0
    u[5,4]     primal_lower 98
    u[5,6]     OBJ        0
    u[5,6]     primal_lower 72
    u[5,7]     OBJ        0
    u[5,7]     primal_lower 55
    u[6,0]     OBJ        0
    u[6,0]     primal_lower 37
    u[6,1]     OBJ        0
    u[6,1]     primal_lower 44
    u[6,2]     OBJ        0
    u[6,2]     primal_lower 36
    u[6,4]     OBJ        0
    u[6,4]     primal_lower 19
    u[6,5]     OBJ        0
    u[6,5]     primal_lower 96
    u[7,2]     OBJ        0
    u[7,2]     primal_lower 34
    u[7,3]     OBJ        0
    u[7,3]     primal_lower 61
    u[7,4]     OBJ        0
    u[7,4]     primal_lower 94
    u[7,5]     OBJ        0
    u[7,5]     primal_lower 74
    MARKER    'MARKER'                 'INTEND'
RHS
    RHS       primal_lower 223
BOUNDS
 LI BND       y[0,1]     0
 UI BND       y[0,1]     1
 LI BND       y[0,2]     0
 UI BND       y[0,2]     1
 LI BND       y[0,3]     0
 UI BND       y[0,3]     1
 LI BND       y[0,4]     0
 UI BND       y[0,4]     1
 LI BND       y[0,5]     0
 UI BND       y[0,5]     1
 LI BND       y[0,6]     0
 UI BND       y[0,6]     1
 LI BND       y[1,0]     0
 UI BND       y[1,0]     1
 LI BND       y[1,2]     0
 UI BND       y[1,2]     1
 LI BND       y[1,3]     0
 UI BND       y[1,3]     1
 LI BND       y[1,4]     0
 UI BND       y[1,4]     1
 LI BND       y[1,6]     0
 UI BND       y[1,6]     1
 LI BND       y[2,0]     0
 UI BND       y[2,0]     1
 LI BND       y[2,1]     0
 UI BND       y[2,1]     1
 LI BND       y[2,3]     0
 UI BND       y[2,3]     1
 LI BND       y[2,4]     0
 UI BND       y[2,4]     1
 LI BND       y[2,5]     0
 UI BND       y[2,5]     1
 LI BND       y[2,6]     0
 UI BND       y[2,6]     1
 LI BND       y[2,7]     0
 UI BND       y[2,7]     1
 LI BND       y[3,0]     0
 UI BND       y[3,0]     1
 LI BND       y[3,1]     0
 UI BND       y[3,1]     1
 LI BND       y[3,2]     0
 UI BND       y[3,2]     1
 LI BND       y[3,4]     0
 UI BND       y[3,4]     1
 LI BND       y[3,5]     0
 UI BND       y[3,5]     1
 LI BND       y[3,7]     0
 UI BND       y[3,7]     1
 LI BND       y[4,0]     0
 UI BND       y[4,0]     1
 LI BND       y[4,1]     0
 UI BND       y[4,1]     1
 LI BND       y[4,2]     0
 UI BND       y[4,2]     1
 LI BND       y[4,3]     0
 UI BND       y[4,3]     1
 LI BND       y[4,5]     0
 UI BND       y[4,5]     1
 LI BND       y[4,6]     0
 UI BND       y[4,6]     1
 LI BND       y[4,7]     0
 UI BND       y[4,7]     1
 LI BND       y[5,0]     0
 UI BND       y[5,0]     1
 LI BND       y[5,2]     0
 UI BND       y[5,2]     1
 LI BND       y[5,3]     0
 UI BND       y[5,3]     1
 LI BND       y[5,4]     0
 UI BND       y[5,4]     1
 LI BND       y[5,6]     0
 UI BND       y[5,6]     1
 LI BND       y[5,7]     0
 UI BND       y[5,7]     1
 LI BND       y[6,0]     0
 UI BND       y[6,0]     1
 LI BND       y[6,1]     0
 UI BND       y[6,1]     1
 LI BND       y[6,2]     0
 UI BND       y[6,2]     1
 LI BND       y[6,4]     0
 UI BND       y[6,4]     1
 LI BND       y[6,5]     0
 UI BND       y[6,5]     1
 LI BND       y[7,2]     0
 UI BND       y[7,2]     1
 LI BND       y[7,3]     0
 UI BND       y[7,3]     1
 LI BND       y[7,4]     0
 UI BND       y[7,4]     1
 LI BND       y[7,5]     0
 UI BND       y[7,5]     1
 LI BND       u[0,1]     0
 UI BND       u[0,1]     1
 LI BND       u[0,2]     0
 UI BND       u[0,2]     1
 LI BND       u[0,3]     0
 UI BND       u[0,3]     1
 LI BND       u[0,4]     0
 UI BND       u[0,4]     1
 LI BND       u[0,5]     0
 UI BND       u[0,5]     1
 LI BND       u[0,6]     0
 UI BND       u[0,6]     1
 LI BND       u[1,0]     0
 UI BND       u[1,0]     1
 LI BND       u[1,2]     0
 UI BND       u[1,2]     1
 LI BND       u[1,3]     0
 UI BND       u[1,3]     1
 LI BND       u[1,4]     0
 UI BND       u[1,4]     1
 LI BND       u[1,6]     0
 UI BND       u[1,6]     1
 LI BND       u[2,0]     0
 UI BND       u[2,0]     1
 LI BND       u[2,1]     0
 UI BND       u[2,1]     1
 LI BND       u[2,3]     0
 UI BND       u[2,3]     1
 LI BND       u[2,4]     0
 UI BND       u[2,4]     1
 LI BND       u[2,5]     0
 UI BND       u[2,5]     1
 LI BND       u[2,6]     0
 UI BND       u[2,6]     1
 LI BND       u[2,7]     0
 UI BND       u[2,7]     1
 LI BND       u[3,0]     0
 UI BND       u[3,0]     1
 LI BND       u[3,1]     0
 UI BND       u[3,1]     1
 LI BND       u[3,2]     0
 UI BND       u[3,2]     1
 LI BND       u[3,4]     0
 UI BND       u[3,4]     1
 LI BND       u[3,5]     0
 UI BND       u[3,5]     1
 LI BND       u[3,7]     0
 UI BND       u[3,7]     1
 LI BND       u[4,0]     0
 UI BND       u[4,0]     1
 LI BND       u[4,1]     0
 UI BND       u[4,1]     1
 LI BND       u[4,2]     0
 UI BND       u[4,2]     1
 LI BND       u[4,3]     0
 UI BND       u[4,3]     1
 LI BND       u[4,5]     0
 UI BND       u[4,5]     1
 LI BND       u[4,6]     0
 UI BND       u[4,6]     1
 LI BND       u[4,7]     0
 UI BND       u[4,7]     1
 LI BND       u[5,0]     0
 UI BND       u[5,0]     1
 LI BND       u[5,2]     0
 UI BND       u[5,2]     1
 LI BND       u[5,3]     0
 UI BND       u[5,3]     1
 LI BND       u[5,4]     0
 UI BND       u[5,4]     1
 LI BND       u[5,6]     0
 UI BND       u[5,6]     1
 LI BND       u[5,7]     0
 UI BND       u[5,7]     1
 LI BND       u[6,0]     0
 UI BND       u[6,0]     1
 LI BND       u[6,1]     0
 UI BND       u[6,1]     1
 LI BND       u[6,2]     0
 UI BND       u[6,2]     1
 LI BND       u[6,4]     0
 UI BND       u[6,4]     1
 LI BND       u[6,5]     0
 UI BND       u[6,5]     1
 LI BND       u[7,2]     0
 UI BND       u[7,2]     1
 LI BND       u[7,3]     0
 UI BND       u[7,3]     1
 LI BND       u[7,4]     0
 UI BND       u[7,4]     1
 LI BND       u[7,5]     0
 UI BND       u[7,5]     1
ENDATA
